Problem:    03
Rows:       2
Columns:    6
Non-zeros:  12
Status:     OPTIMAL
Objective:  z = 226976.7442 (MAXimum)

   No.   Row name   St   Activity     Lower bound   Upper bound    Marginal
------ ------------ -- ------------- ------------- ------------- -------------
     1 acqua        NU        400000                      400000      0.567442 
     2 z            B         226977                             

   No. Column name  St   Activity     Lower bound   Upper bound    Marginal
------ ------------ -- ------------- ------------- ------------- -------------
     1 x[1]         NL             0             0                     -20.093 
     2 x[2]         NL             0             0                    -28.7907 
     3 x[3]         NL             0             0                    -28.7442 
     4 x[4]         NL             0             0                    -43.4419 
     5 x[5]         B        1860.47             0               
     6 x[6]         NL             0             0                    -8.13953 

Karush-Kuhn-Tucker optimality conditions:

KKT.PE: max.abs.err = 0.00e+00 on row 0
        max.rel.err = 0.00e+00 on row 0
        High quality

KKT.PB: max.abs.err = 0.00e+00 on row 0
        max.rel.err = 0.00e+00 on row 0
        High quality

KKT.DE: max.abs.err = 1.42e-14 on column 5
        max.rel.err = 5.80e-17 on column 5
        High quality

KKT.DB: max.abs.err = 0.00e+00 on row 0
        max.rel.err = 0.00e+00 on row 0
        High quality

End of output
